p cnf 18 13
-16 19 -12 -10 -18 -2 0
-16 -14 20 -10 -6 -4 -18 0
-8 -20 -12 -1 0
-7 -20 -2 0
-3 -14 21 -19 0
-7 -6 -21 0
-8 -6 -21 0
-8 -5 -21 0
-7 -5 -21 0
-6 -4 -19 22 0
-8 -22 -13 0
-8 -14 -22 0
-7 -22 -13 0
